Route #1: 4 27 52 8 46 34
Route #2: 19 54 13 57 15 37 20 60 36
Route #3: 45 29 5 47 21 48
Route #4: 30 28 61 22 62 2
Route #5: 23 56 41 64 42 43 1
Route #6: 6 33 51 17 40 12
Route #7: 39 9 32 44 3 16
Route #8: 63 49 24 18 50 25 55 31
Route #9: 58 10 38 11
Route #10: 35 14 59 53 7 26
Cost 834